10
0 0 0
0 1 907
0 2 661
0 3 679
0 4 534
0 5 572
0 6 863
0 7 990
0 8 752
0 9 8
1 0 377
1 1 0
1 2 742
1 3 730
1 4 675
1 5 326
1 6 748
1 7 612
1 8 107
1 9 12
2 0 68
2 1 580
2 2 0
2 3 707
2 4 655
2 5 55
2 6 31
2 7 361
2 8 422
2 9 879
3 0 855
3 1 775
3 2 368
3 3 0
3 4 731
3 5 751
3 6 822
3 7 130
3 8 931
3 9 938
4 0 65
4 1 86
4 2 221
4 3 343
4 4 0
4 5 73
4 6 458
4 7 552
4 8 303
4 9 101
5 0 325
5 1 827
5 2 119
5 3 188
5 4 778
5 5 0
5 6 161
5 7 308
5 8 775
5 9 547
6 0 390
6 1 278
6 2 471
6 3 235
6 4 777
6 5 204
6 6 0
6 7 714
6 8 955
6 9 56
7 0 323
7 1 658
7 2 545
7 3 257
7 4 523
7 5 799
7 6 746
7 7 0
7 8 996
7 9 28
8 0 515
8 1 691
8 2 283
8 3 268
8 4 902
8 5 790
8 6 216
8 7 499
8 8 0
8 9 49
9 0 651
9 1 339
9 2 541
9 3 162
9 4 977
9 5 833
9 6 111
9 7 738
9 8 473
9 9 0
11
0 0 0
0 1 190
0 2 539
0 3 358
0 4 680
0 5 447
0 6 352
0 7 502
0 8 311
0 9 620
0 10 75
1 0 209
1 1 0
1 2 78
1 3 483
1 4 865
1 5 341
1 6 272
1 7 413
1 8 20
1 9 647
1 10 292
2 0 643
2 1 216
2 2 0
2 3 837
2 4 161
2 5 864
2 6 348
2 7 403
2 8 581
2 9 834
2 10 186
3 0 954
3 1 477
3 2 286
3 3 0
3 4 678
3 5 454
3 6 41
3 7 210
3 8 604
3 9 838
3 10 261
4 0 304
4 1 477
4 2 155
4 3 557
4 4 0
4 5 204
4 6 25
4 7 551
4 8 639
4 9 910
4 10 338
5 0 125
5 1 964
5 2 677
5 3 770
5 4 933
5 5 0
5 6 157
5 7 546
5 8 988
5 9 193
5 10 645
6 0 562
6 1 133
6 2 32
6 3 260
6 4 725
6 5 941
6 6 0
6 7 986
6 8 39
6 9 645
6 10 770
7 0 793
7 1 510
7 2 930
7 3 954
7 4 959
7 5 780
7 6 337
7 7 0
7 8 569
7 9 956
7 10 389
8 0 804
8 1 693
8 2 947
8 3 442
8 4 593
8 5 531
8 6 336
8 7 791
8 8 0
8 9 882
8 10 274
9 0 548
9 1 109
9 2 337
9 3 451
9 4 945
9 5 542
9 6 369
9 7 587
9 8 899
9 9 0
9 10 248
10 0 28
10 1 422
10 2 641
10 3 550
10 4 721
10 5 565
10 6 680
10 7 600
10 8 257
10 9 470
10 10 0
12
0 0 0
0 1 238
0 2 437
0 3 27
0 4 804
0 5 386
0 6 70
0 7 481
0 8 828
0 9 281
0 10 739
0 11 451
1 0 197
1 1 0
1 2 207
1 3 835
1 4 293
1 5 656
1 6 914
1 7 40
1 8 235
1 9 494
1 10 69
1 11 141
2 0 851
2 1 229
2 2 0
2 3 550
2 4 612
2 5 20
2 6 946
2 7 654
2 8 509
2 9 340
2 10 890
2 11 266
3 0 436
3 1 483
3 2 438
3 3 0
3 4 473
3 5 339
3 6 602
3 7 285
3 8 120
3 9 683
3 10 552
3 11 786
4 0 296
4 1 106
4 2 307
4 3 685
4 4 0
4 5 844
4 6 9
4 7 698
4 8 86
4 9 519
4 10 653
4 11 301
5 0 418
5 1 587
5 2 260
5 3 55
5 4 302
5 5 0
5 6 272
5 7 275
5 8 8
5 9 703
5 10 655
5 11 441
6 0 380
6 1 474
6 2 342
6 3 587
6 4 6
6 5 408
6 6 0
6 7 447
6 8 36
6 9 98
6 10 234
6 11 229
7 0 392
7 1 170
7 2 542
7 3 18
7 4 32
7 5 946
7 6 519
7 7 0
7 8 892
7 9 11
7 10 2
7 11 484
8 0 966
8 1 251
8 2 959
8 3 653
8 4 10
8 5 820
8 6 26
8 7 267
8 8 0
8 9 586
8 10 824
8 11 811
9 0 201
9 1 824
9 2 945
9 3 386
9 4 424
9 5 473
9 6 920
9 7 755
9 8 262
9 9 0
9 10 868
9 11 353
10 0 11
10 1 199
10 2 28
10 3 60
10 4 682
10 5 108
10 6 169
10 7 798
10 8 995
10 9 155
10 10 0
10 11 552
11 0 630
11 1 32
11 2 327
11 3 718
11 4 359
11 5 53
11 6 455
11 7 865
11 8 438
11 9 580
11 10 879
11 11 0
13
0 0 0
0 1 293
0 2 532
0 3 190
0 4 364
0 5 652
0 6 396
0 7 338
0 8 737
0 9 930
0 10 104
0 11 966
0 12 745
1 0 971
1 1 0
1 2 702
1 3 82
1 4 8
1 5 639
1 6 280
1 7 977
1 8 601
1 9 607
1 10 91
1 11 262
1 12 698
2 0 147
2 1 782
2 2 0
2 3 436
2 4 922
2 5 236
2 6 32
2 7 286
2 8 542
2 9 759
2 10 901
2 11 985
2 12 402
3 0 560
3 1 939
3 2 449
3 3 0
3 4 544
3 5 645
3 6 719
3 7 107
3 8 785
3 9 882
3 10 765
3 11 997
3 12 146
4 0 121
4 1 974
4 2 785
4 3 898
4 4 0
4 5 799
4 6 572
4 7 87
4 8 187
4 9 730
4 10 287
4 11 262
4 12 635
5 0 948
5 1 919
5 2 644
5 3 55
5 4 214
5 5 0
5 6 738
5 7 61
5 8 443
5 9 14
5 10 163
5 11 368
5 12 697
6 0 662
6 1 992
6 2 609
6 3 89
6 4 427
6 5 44
6 6 0
6 7 405
6 8 401
6 9 429
6 10 469
6 11 129
6 12 738
7 0 445
7 1 112
7 2 417
7 3 500
7 4 621
7 5 266
7 6 652
7 7 0
7 8 643
7 9 567
7 10 885
7 11 72
7 12 418
8 0 227
8 1 805
8 2 297
8 3 960
8 4 457
8 5 807
8 6 199
8 7 715
8 8 0
8 9 206
8 10 444
8 11 176
8 12 493
9 0 835
9 1 362
9 2 120
9 3 33
9 4 97
9 5 501
9 6 582
9 7 395
9 8 15
9 9 0
9 10 951
9 11 896
9 12 120
10 0 970
10 1 435
10 2 312
10 3 106
10 4 35
10 5 363
10 6 516
10 7 325
10 8 788
10 9 139
10 10 0
10 11 268
10 12 77
11 0 576
11 1 952
11 2 257
11 3 236
11 4 487
11 5 583
11 6 714
11 7 48
11 8 93
11 9 860
11 10 740
11 11 0
11 12 369
12 0 344
12 1 269
12 2 813
12 3 929
12 4 884
12 5 884
12 6 421
12 7 56
12 8 459
12 9 222
12 10 326
12 11 564
12 12 0
14
0 0 0
0 1 993
0 2 838
0 3 531
0 4 963
0 5 402
0 6 496
0 7 606
0 8 909
0 9 183
0 10 507
0 11 711
0 12 886
0 13 354
1 0 415
1 1 0
1 2 252
1 3 417
1 4 383
1 5 538
1 6 857
1 7 726
1 8 298
1 9 10
1 10 71
1 11 658
1 12 332
1 13 864
2 0 907
2 1 830
2 2 0
2 3 83
2 4 397
2 5 213
2 6 468
2 7 335
2 8 520
2 9 607
2 10 78
2 11 436
2 12 50
2 13 613
3 0 152
3 1 339
3 2 933
3 3 0
3 4 478
3 5 395
3 6 208
3 7 198
3 8 116
3 9 528
3 10 767
3 11 43
3 12 507
3 13 598
4 0 462
4 1 820
4 2 922
4 3 861
4 4 0
4 5 796
4 6 854
4 7 306
4 8 725
4 9 185
4 10 961
4 11 213
4 12 948
4 13 27
5 0 255
5 1 753
5 2 268
5 3 709
5 4 336
5 5 0
5 6 116
5 7 912
5 8 732
5 9 219
5 10 361
5 11 970
5 12 151
5 13 454
6 0 354
6 1 473
6 2 130
6 3 711
6 4 877
6 5 84
6 6 0
6 7 436
6 8 723
6 9 235
6 10 747
6 11 369
6 12 927
6 13 871
7 0 275
7 1 733
7 2 272
7 3 845
7 4 842
7 5 167
7 6 692
7 7 0
7 8 322
7 9 552
7 10 345
7 11 449
7 12 582
7 13 799
8 0 298
8 1 112
8 2 443
8 3 908
8 4 401
8 5 228
8 6 403
8 7 652
8 8 0
8 9 364
8 10 855
8 11 256
8 12 567
8 13 888
9 0 997
9 1 415
9 2 660
9 3 552
9 4 625
9 5 674
9 6 8
9 7 856
9 8 437
9 9 0
9 10 700
9 11 967
9 12 304
9 13 694
10 0 91
10 1 164
10 2 859
10 3 488
10 4 478
10 5 260
10 6 102
10 7 595
10 8 727
10 9 468
10 10 0
10 11 946
10 12 595
10 13 17
11 0 182
11 1 811
11 2 309
11 3 242
11 4 650
11 5 768
11 6 737
11 7 891
11 8 547
11 9 255
11 10 552
11 11 0
11 12 374
11 13 443
12 0 626
12 1 940
12 2 488
12 3 646
12 4 994
12 5 9
12 6 592
12 7 617
12 8 506
12 9 255
12 10 879
12 11 170
12 12 0
12 13 464
13 0 613
13 1 28
13 2 988
13 3 448
13 4 419
13 5 440
13 6 536
13 7 948
13 8 213
13 9 194
13 10 330
13 11 786
13 12 687
13 13 0
